db/data/741310787305931991213902203032726724399.z3.out
sat
-------------------
710.908732338
